c Graph
c
p edge 100 471
e 6 5
e 8 5
e 11 1
e 11 2
e 11 6
e 11 7
e 12 3
e 12 5
e 14 7
e 17 6
e 17 11
e 17 15
e 18 2
e 18 9
e 19 3
e 19 7
e 19 15
e 19 17
e 20 18
e 20 19
e 20 8
e 20 10
e 21 18
e 22 1
e 23 17
e 23 18
e 24 11
e 25 17
e 25 13
e 26 14
e 27 19
e 27 3
e 27 20
e 27 15
e 28 2
e 28 13
e 30 2
e 30 9
e 30 13
e 31 16
e 31 17
e 31 20
e 31 21
e 31 9
e 31 10
e 32 24
e 32 12
e 32 13
e 33 1
e 33 26
e 34 33
e 34 9
e 34 27
e 34 28
e 34 31
e 35 32
e 36 15
e 37 23
e 37 12
e 37 13
e 37 15
e 38 24
e 38 8
e 39 19
e 39 6
e 39 25
e 39 27
e 39 15
e 40 16
e 40 1
e 40 20
e 40 4
e 41 22
e 41 8
e 42 4
e 42 13
e 43 17
e 43 3
e 43 40
e 43 10
e 43 12
e 44 18
e 44 19
e 44 3
e 44 42
e 44 27
e 45 33
e 45 6
e 45 8
e 45 10
e 45 43
e 45 19
e 45 29
e 45 30
e 46 5
e 47 34
e 47 3
e 47 5
e 47 41
e 47 12
e 48 32
e 48 21
e 49 5
e 49 41
e 49 10
e 49 13
e 49 46
e 49 25
e 49 28
e 50 19
e 50 25
e 50 26
e 51 17
e 51 34
e 51 38
e 51 26
e 51 12
e 52 35
e 52 6
e 52 43
e 52 12
e 52 19
e 52 29
e 52 30
e 53 3
e 53 7
e 53 39
e 53 13
e 53 52
e 53 23
e 54 50
e 54 34
e 54 25
e 54 9
e 54 26
e 54 28
e 54 15
e 55 3
e 55 52
e 55 20
e 55 22
e 55 7
e 56 52
e 56 40
e 56 30
e 57 53
e 57 28
e 57 45
e 58 21
e 58 55
e 58 42
e 58 44
e 59 32
e 59 2
e 59 36
e 59 6
e 59 40
e 59 44
e 59 19
e 59 51
e 59 20
e 59 21
e 60 1
e 60 34
e 60 4
e 60 37
e 60 8
e 60 45
e 60 15
e 61 49
e 61 2
e 61 51
e 61 19
e 61 21
e 61 22
e 61 6
e 61 60
e 61 45
e 62 32
e 62 54
e 62 8
e 62 60
e 62 15
e 63 42
e 63 43
e 63 28
e 63 45
e 63 47
e 64 35
e 64 8
e 64 46
e 64 17
e 64 21
e 64 23
e 64 24
e 64 62
e 64 63
e 65 50
e 65 10
e 65 13
e 66 40
e 66 57
e 66 43
e 66 44
e 67 66
e 67 21
e 68 1
e 68 2
e 68 39
e 68 13
e 68 19
e 68 20
e 68 53
e 68 22
e 68 57
e 68 60
e 68 61
e 68 62
e 69 32
e 69 16
e 69 65
e 69 38
e 69 9
e 69 42
e 69 60
e 69 44
e 69 45
e 70 69
e 70 5
e 70 8
e 70 45
e 70 13
e 71 64
e 71 33
e 71 66
e 71 34
e 71 39
e 71 59
e 71 43
e 71 12
e 71 15
e 72 38
e 72 43
e 72 13
e 73 51
e 73 6
e 73 56
e 73 25
e 73 27
e 73 44
e 73 12
e 73 30
e 74 48
e 74 32
e 74 24
e 74 62
e 74 46
e 74 14
e 74 47
e 75 48
e 75 65
e 75 33
e 75 69
e 75 21
e 75 73
e 75 59
e 76 8
e 76 74
e 76 10
e 76 42
e 76 14
e 76 48
e 76 52
e 76 21
e 76 53
e 76 55
e 76 25
e 76 28
e 76 60
e 76 30
e 77 33
e 77 65
e 77 4
e 77 39
e 77 41
e 77 10
e 77 75
e 77 45
e 77 49
e 77 50
e 77 52
e 77 54
e 77 23
e 77 58
e 78 42
e 78 74
e 78 13
e 78 77
e 78 16
e 78 49
e 78 21
e 78 54
e 78 25
e 78 27
e 78 63
e 79 23
e 79 24
e 79 58
e 79 11
e 79 14
e 79 15
e 80 49
e 80 35
e 80 7
e 81 16
e 81 17
e 81 18
e 81 30
e 82 80
e 82 33
e 82 18
e 82 19
e 82 37
e 82 22
e 82 42
e 82 63
e 83 64
e 83 35
e 83 20
e 83 39
e 83 78
e 83 62
e 83 63
e 83 47
e 84 48
e 84 33
e 84 82
e 84 72
e 84 42
e 84 26
e 84 44
e 84 14
e 84 79
e 84 63
e 85 49
e 85 17
e 85 53
e 85 8
e 85 9
e 85 10
e 86 81
e 86 3
e 86 68
e 86 27
e 86 76
e 86 60
e 86 63
e 87 17
e 87 22
e 87 71
e 87 72
e 87 24
e 87 74
e 87 75
e 87 60
e 87 61
e 87 29
e 88 65
e 88 22
e 88 71
e 88 72
e 88 8
e 88 77
e 89 80
e 89 82
e 89 3
e 89 53
e 89 86
e 89 7
e 89 26
e 89 62
e 89 31
e 90 80
e 90 33
e 90 83
e 90 84
e 90 21
e 90 41
e 90 43
e 90 14
e 90 31
e 91 17
e 91 68
e 91 56
e 91 40
e 91 24
e 91 90
e 91 76
e 91 12
e 91 78
e 91 31
e 92 64
e 92 65
e 92 50
e 92 69
e 92 89
e 92 41
e 92 90
e 92 60
e 92 30
e 93 64
e 93 82
e 93 34
e 93 4
e 93 25
e 93 42
e 93 62
e 93 47
e 94 32
e 94 41
e 94 61
e 94 45
e 94 15
e 95 80
e 95 48
e 95 65
e 95 19
e 95 84
e 95 52
e 95 57
e 95 25
e 95 27
e 95 60
e 96 50
e 96 2
e 96 5
e 96 87
e 96 88
e 96 11
e 96 46
e 97 32
e 97 50
e 97 20
e 97 72
e 97 40
e 98 48
e 98 49
e 98 82
e 98 53
e 98 21
e 98 22
e 98 24
e 98 26
e 98 77
e 98 13
e 99 16
e 99 1
e 99 3
e 99 52
e 99 53
e 99 22
e 99 59
e 99 27
e 99 44
e 99 30
e 100 51
e 100 35
e 100 53
e 100 70
e 100 45
e 100 63
